NAME : portcgen-28-7
COMMENT : portcgen N=28, seed=7
TYPE : TSP
DIMENSION : 28
EDGE_WEIGHT_TYPE : EUC_2D
NODE_COORD_SECTION
1 120677 -170677
2 -51268 305963
3 147804 -56881
4 -226933 -239324
5 -319818 81476
6 -16406 -160016
7 -366032 -201214
8 175516 176135
9 -9505 -212936
10 732 -34364
11 121353 -22350
12 21463 -295180
13 -458083 152021
14 -279320 188843
15 355055 261403
16 -87246 116090
17 -65308 -228281
18 -30229 -203758
19 -377110 -94886
20 261934 -133661
21 52876 319827
22 -55135 -210150
23 135475 165999
24 20539 -148069
25 -161427 -17894
26 -4730 -151963
27 -347357 -154353
28 -49825 -40727
